(set-logic ALL)
(set-option :produce-models true)
(declare-sort BoundSet 0)
(declare-sort UnboundSet 0)
(set-option :finite-model-find true)
(declare-fun IsInCoat (BoundSet) Bool)
(declare-fun Kisses (BoundSet) Bool)
(declare-fun IsOnSideOfRoad (BoundSet BoundSet) Bool)
(declare-fun ShowsAppreciation (BoundSet BoundSet) Bool)
(assert (not (=> (exists ((a BoundSet)) (exists ((c BoundSet)) (and (IsInCoat a) (and (Kisses a) (IsOnSideOfRoad a c))))) (exists ((d BoundSet)) (exists ((f BoundSet)) (ShowsAppreciation d f))))))
(check-sat)
(get-model)